p cnf 196 1
196 0
w 1 0.448731
w 2 1 0
w 2 -1 1
w 3 2 1
w 3 -2 0
w 4 3 1
w 4 -3 0
w 5 4 0.330205
w 5 -4 0.650388
w 6 5 0.00112572
w 6 -5 0.64848
w 7 6 1
w 7 -6 0
w 8 7 1
w 8 -7 0
w 9 8 1
w 9 -8 0
w 10 9 0.205079
w 10 -9 0.590844
w 11 10 0
w 11 -10 1
w 12 11 0.543907
w 12 -11 0.742915
w 13 12 0.0336828
w 13 -12 0.286155
w 14 13 0
w 14 -13 1
w 15 1 0
w 15 -1 1
w 16 15 2 0.165941
w 16 15 -2 0.620262
w 16 -15 2 0.0193849
w 16 -15 -2 0.982011
w 17 16 3 0.669773
w 17 16 -3 0.633832
w 17 -16 3 0.951592
w 17 -16 -3 0.318253
w 18 17 4 0.222629
w 18 17 -4 0.656296
w 18 -17 4 0.988133
w 18 -17 -4 0.548444
w 19 18 5 1
w 19 18 -5 0
w 19 -18 5 1
w 19 -18 -5 0
w 20 19 6 0.565014
w 20 19 -6 0.386702
w 20 -19 6 0.435729
w 20 -19 -6 0.302045
w 21 20 7 1
w 21 20 -7 1
w 21 -20 7 0
w 21 -20 -7 1
w 22 21 8 0.818918
w 22 21 -8 0.247007
w 22 -21 8 0.591
w 22 -21 -8 0.838303
w 23 22 9 0
w 23 22 -9 1
w 23 -22 9 0
w 23 -22 -9 0
w 24 23 10 0.715688
w 24 23 -10 0.482625
w 24 -23 10 0.70105
w 24 -23 -10 0.264133
w 25 24 11 0.277104
w 25 24 -11 0.017656
w 25 -24 11 0.929299
w 25 -24 -11 0.119899
w 26 25 12 0.494313
w 26 25 -12 0.5066
w 26 -25 12 0.1462
w 26 -25 -12 0.796358
w 27 26 13 0.868085
w 27 26 -13 0.165964
w 27 -26 13 0.829784
w 27 -26 -13 0.949151
w 28 27 14 1
w 28 27 -14 0
w 28 -27 14 1
w 28 -27 -14 1
w 29 15 1
w 29 -15 0
w 30 29 16 0.288027
w 30 29 -16 0.762227
w 30 -29 16 0.821408
w 30 -29 -16 0.000944324
w 31 30 17 1
w 31 30 -17 0
w 31 -30 17 0
w 31 -30 -17 1
w 32 31 18 0.759704
w 32 31 -18 0.143871
w 32 -31 18 0.0989974
w 32 -31 -18 0.470174
w 33 32 19 0.605598
w 33 32 -19 0.616375
w 33 -32 19 0.434542
w 33 -32 -19 0.532583
w 34 33 20 0
w 34 33 -20 0
w 34 -33 20 1
w 34 -33 -20 0
w 35 34 21 0
w 35 34 -21 1
w 35 -34 21 1
w 35 -34 -21 1
w 36 35 22 0
w 36 35 -22 1
w 36 -35 22 0
w 36 -35 -22 0
w 37 36 23 0.618595
w 37 36 -23 0.0459122
w 37 -36 23 0.716267
w 37 -36 -23 0.833167
w 38 37 24 1
w 38 37 -24 1
w 38 -37 24 1
w 38 -37 -24 0
w 39 38 25 0.729606
w 39 38 -25 0.56252
w 39 -38 25 0.0497646
w 39 -38 -25 0.262189
w 40 39 26 1
w 40 39 -26 0
w 40 -39 26 0
w 40 -39 -26 1
w 41 40 27 0.11036
w 41 40 -27 0.852387
w 41 -40 27 0.133697
w 41 -40 -27 0.165307
w 42 41 28 0.62685
w 42 41 -28 0.50828
w 42 -41 28 0.0827691
w 42 -41 -28 0.941412
w 43 29 0.0569887
w 43 -29 0.560006
w 44 43 30 0.773256
w 44 43 -30 0.393173
w 44 -43 30 0.923121
w 44 -43 -30 0.249227
w 45 44 31 0
w 45 44 -31 1
w 45 -44 31 0
w 45 -44 -31 1
w 46 45 32 0.0351993
w 46 45 -32 0.0389253
w 46 -45 32 0.804873
w 46 -45 -32 0.68547
w 47 46 33 0.285464
w 47 46 -33 0.0729479
w 47 -46 33 0.299106
w 47 -46 -33 0.395824
w 48 47 34 0.432803
w 48 47 -34 0.561131
w 48 -47 34 0.5118
w 48 -47 -34 0.0596526
w 49 48 35 0
w 49 48 -35 0
w 49 -48 35 0
w 49 -48 -35 1
w 50 49 36 0.819719
w 50 49 -36 0.424814
w 50 -49 36 0.954244
w 50 -49 -36 0.74284
w 51 50 37 0.324456
w 51 50 -37 0.78997
w 51 -50 37 0.869415
w 51 -50 -37 0.30989
w 52 51 38 0.627308
w 52 51 -38 0.34509
w 52 -51 38 0.605631
w 52 -51 -38 0.432181
w 53 52 39 1
w 53 52 -39 0
w 53 -52 39 1
w 53 -52 -39 1
w 54 53 40 0
w 54 53 -40 1
w 54 -53 40 0
w 54 -53 -40 1
w 55 54 41 0
w 55 54 -41 1
w 55 -54 41 1
w 55 -54 -41 1
w 56 55 42 0.485341
w 56 55 -42 0.211584
w 56 -55 42 0.577051
w 56 -55 -42 0.228182
w 57 43 0.901507
w 57 -43 0.0181514
w 58 57 44 0.211397
w 58 57 -44 0.584857
w 58 -57 44 0.382348
w 58 -57 -44 0.556487
w 59 58 45 1
w 59 58 -45 0
w 59 -58 45 1
w 59 -58 -45 0
w 60 59 46 0.0278185
w 60 59 -46 0.645644
w 60 -59 46 0.719396
w 60 -59 -46 0.028839
w 61 60 47 0
w 61 60 -47 1
w 61 -60 47 1
w 61 -60 -47 0
w 62 61 48 0
w 62 61 -48 0
w 62 -61 48 0
w 62 -61 -48 1
w 63 62 49 1
w 63 62 -49 0
w 63 -62 49 0
w 63 -62 -49 0
w 64 63 50 0
w 64 63 -50 1
w 64 -63 50 0
w 64 -63 -50 1
w 65 64 51 0
w 65 64 -51 1
w 65 -64 51 0
w 65 -64 -51 0
w 66 65 52 0.298099
w 66 65 -52 0.724317
w 66 -65 52 0.408964
w 66 -65 -52 0.0174953
w 67 66 53 0.729209
w 67 66 -53 0.277534
w 67 -66 53 0.842668
w 67 -66 -53 0.793466
w 68 67 54 0.993917
w 68 67 -54 0.523345
w 68 -67 54 0.854806
w 68 -67 -54 0.767974
w 69 68 55 0.24841
w 69 68 -55 0.119082
w 69 -68 55 0.181966
w 69 -68 -55 0.52764
w 70 69 56 1
w 70 69 -56 0
w 70 -69 56 0
w 70 -69 -56 1
w 71 57 0.856207
w 71 -57 0.926827
w 72 71 58 1
w 72 71 -58 0
w 72 -71 58 1
w 72 -71 -58 1
w 73 72 59 0
w 73 72 -59 0
w 73 -72 59 1
w 73 -72 -59 1
w 74 73 60 1
w 74 73 -60 1
w 74 -73 60 1
w 74 -73 -60 0
w 75 74 61 1
w 75 74 -61 1
w 75 -74 61 0
w 75 -74 -61 1
w 76 75 62 1
w 76 75 -62 1
w 76 -75 62 0
w 76 -75 -62 1
w 77 76 63 0
w 77 76 -63 0
w 77 -76 63 0
w 77 -76 -63 1
w 78 77 64 0
w 78 77 -64 0
w 78 -77 64 1
w 78 -77 -64 0
w 79 78 65 1
w 79 78 -65 1
w 79 -78 65 0
w 79 -78 -65 0
w 80 79 66 0.48139
w 80 79 -66 0.679551
w 80 -79 66 0.561404
w 80 -79 -66 0.909369
w 81 80 67 0
w 81 80 -67 1
w 81 -80 67 1
w 81 -80 -67 0
w 82 81 68 0
w 82 81 -68 1
w 82 -81 68 1
w 82 -81 -68 1
w 83 82 69 1
w 83 82 -69 0
w 83 -82 69 0
w 83 -82 -69 1
w 84 83 70 0
w 84 83 -70 1
w 84 -83 70 1
w 84 -83 -70 1
w 85 71 0.940673
w 85 -71 0.565707
w 86 85 72 0
w 86 85 -72 1
w 86 -85 72 1
w 86 -85 -72 1
w 87 86 73 1
w 87 86 -73 1
w 87 -86 73 0
w 87 -86 -73 0
w 88 87 74 0.742984
w 88 87 -74 0.40852
w 88 -87 74 0.013499
w 88 -87 -74 0.0303263
w 89 88 75 0.39336
w 89 88 -75 0.349515
w 89 -88 75 0.92337
w 89 -88 -75 0.674182
w 90 89 76 0.630555
w 90 89 -76 0.0656381
w 90 -89 76 0.115804
w 90 -89 -76 0.569848
w 91 90 77 0.788508
w 91 90 -77 0.0888914
w 91 -90 77 0.481397
w 91 -90 -77 0.354215
w 92 91 78 0
w 92 91 -78 1
w 92 -91 78 1
w 92 -91 -78 1
w 93 92 79 1
w 93 92 -79 0
w 93 -92 79 0
w 93 -92 -79 1
w 94 93 80 0.080185
w 94 93 -80 0.891879
w 94 -93 80 0.298455
w 94 -93 -80 0.093684
w 95 94 81 0.123423
w 95 94 -81 0.487044
w 95 -94 81 0.27172
w 95 -94 -81 0.0467926
w 96 95 82 0
w 96 95 -82 1
w 96 -95 82 0
w 96 -95 -82 0
w 97 96 83 1
w 97 96 -83 0
w 97 -96 83 0
w 97 -96 -83 1
w 98 97 84 0
w 98 97 -84 1
w 98 -97 84 1
w 98 -97 -84 1
w 99 85 0
w 99 -85 1
w 100 99 86 1
w 100 99 -86 1
w 100 -99 86 1
w 100 -99 -86 0
w 101 100 87 0.274559
w 101 100 -87 0.339683
w 101 -100 87 0.719742
w 101 -100 -87 0.196764
w 102 101 88 0
w 102 101 -88 1
w 102 -101 88 1
w 102 -101 -88 1
w 103 102 89 0
w 103 102 -89 0
w 103 -102 89 0
w 103 -102 -89 1
w 104 103 90 0.770527
w 104 103 -90 0.611449
w 104 -103 90 0.0610285
w 104 -103 -90 0.395099
w 105 104 91 0.0178377
w 105 104 -91 0.13177
w 105 -104 91 0.104718
w 105 -104 -91 0.0395962
w 106 105 92 0
w 106 105 -92 0
w 106 -105 92 1
w 106 -105 -92 1
w 107 106 93 1
w 107 106 -93 1
w 107 -106 93 0
w 107 -106 -93 1
w 108 107 94 1
w 108 107 -94 0
w 108 -107 94 1
w 108 -107 -94 0
w 109 108 95 0.797172
w 109 108 -95 0.100944
w 109 -108 95 0.226238
w 109 -108 -95 0.231613
w 110 109 96 1
w 110 109 -96 1
w 110 -109 96 0
w 110 -109 -96 1
w 111 110 97 0
w 111 110 -97 0
w 111 -110 97 0
w 111 -110 -97 1
w 112 111 98 0
w 112 111 -98 0
w 112 -111 98 0
w 112 -111 -98 1
w 113 99 0.115723
w 113 -99 0.665593
w 114 113 100 1
w 114 113 -100 1
w 114 -113 100 0
w 114 -113 -100 0
w 115 114 101 0.938959
w 115 114 -101 0.691114
w 115 -114 101 0.55819
w 115 -114 -101 0.736131
w 116 115 102 0.784428
w 116 115 -102 0.967743
w 116 -115 102 0.255467
w 116 -115 -102 0.984693
w 117 116 103 0.330325
w 117 116 -103 0.245986
w 117 -116 103 0.367123
w 117 -116 -103 0.264444
w 118 117 104 0.896132
w 118 117 -104 0.30328
w 118 -117 104 0.843844
w 118 -117 -104 0.790696
w 119 118 105 0.74804
w 119 118 -105 0.433495
w 119 -118 105 0.190211
w 119 -118 -105 0.863763
w 120 119 106 1
w 120 119 -106 1
w 120 -119 106 1
w 120 -119 -106 0
w 121 120 107 0
w 121 120 -107 0
w 121 -120 107 0
w 121 -120 -107 1
w 122 121 108 0
w 122 121 -108 0
w 122 -121 108 0
w 122 -121 -108 1
w 123 122 109 0.360965
w 123 122 -109 0.164764
w 123 -122 109 0.130726
w 123 -122 -109 0.728088
w 124 123 110 1
w 124 123 -110 0
w 124 -123 110 0
w 124 -123 -110 1
w 125 124 111 0
w 125 124 -111 0
w 125 -124 111 0
w 125 -124 -111 1
w 126 125 112 0
w 126 125 -112 0
w 126 -125 112 0
w 126 -125 -112 1
w 127 113 0.118046
w 127 -113 0.489164
w 128 127 114 0
w 128 127 -114 1
w 128 -127 114 0
w 128 -127 -114 0
w 129 128 115 0.18992
w 129 128 -115 0.318372
w 129 -128 115 0.389569
w 129 -128 -115 0.550885
w 130 129 116 0
w 130 129 -116 0
w 130 -129 116 1
w 130 -129 -116 0
w 131 130 117 0.644831
w 131 130 -117 0.675825
w 131 -130 117 0.318108
w 131 -130 -117 0.975445
w 132 131 118 0.166518
w 132 131 -118 0.49627
w 132 -131 118 0.0350431
w 132 -131 -118 0.114016
w 133 132 119 1
w 133 132 -119 1
w 133 -132 119 1
w 133 -132 -119 0
w 134 133 120 0.0802957
w 134 133 -120 0.139699
w 134 -133 120 0.298939
w 134 -133 -120 0.564229
w 135 134 121 0.488859
w 135 134 -121 0.882601
w 135 -134 121 0.0340968
w 135 -134 -121 0.039744
w 136 135 122 0
w 136 135 -122 1
w 136 -135 122 1
w 136 -135 -122 0
w 137 136 123 1
w 137 136 -123 0
w 137 -136 123 0
w 137 -136 -123 0
w 138 137 124 0
w 138 137 -124 1
w 138 -137 124 0
w 138 -137 -124 1
w 139 138 125 0.422238
w 139 138 -125 0.866305
w 139 -138 125 0.955541
w 139 -138 -125 0.597573
w 140 139 126 1
w 140 139 -126 1
w 140 -139 126 1
w 140 -139 -126 0
w 141 127 0
w 141 -127 1
w 142 141 128 0
w 142 141 -128 0
w 142 -141 128 0
w 142 -141 -128 1
w 143 142 129 0.768518
w 143 142 -129 0.504466
w 143 -142 129 0.823811
w 143 -142 -129 0.691431
w 144 143 130 0.363829
w 144 143 -130 0.589789
w 144 -143 130 0.240727
w 144 -143 -130 0.0703662
w 145 144 131 0.605677
w 145 144 -131 0.890919
w 145 -144 131 0.815357
w 145 -144 -131 0.0279155
w 146 145 132 0.770898
w 146 145 -132 0.625488
w 146 -145 132 0.158447
w 146 -145 -132 0.22654
w 147 146 133 1
w 147 146 -133 1
w 147 -146 133 0
w 147 -146 -133 1
w 148 147 134 1
w 148 147 -134 0
w 148 -147 134 1
w 148 -147 -134 1
w 149 148 135 0.109643
w 149 148 -135 0.929109
w 149 -148 135 0.382766
w 149 -148 -135 0.933454
w 150 149 136 0.293587
w 150 149 -136 0.297283
w 150 -149 136 0.210329
w 150 -149 -136 0.534314
w 151 150 137 0
w 151 150 -137 0
w 151 -150 137 1
w 151 -150 -137 1
w 152 151 138 0
w 152 151 -138 1
w 152 -151 138 1
w 152 -151 -138 1
w 153 152 139 0
w 153 152 -139 0
w 153 -152 139 0
w 153 -152 -139 1
w 154 153 140 1
w 154 153 -140 1
w 154 -153 140 0
w 154 -153 -140 0
w 155 141 0.830605
w 155 -141 0.40206
w 156 155 142 1
w 156 155 -142 0
w 156 -155 142 1
w 156 -155 -142 1
w 157 156 143 0
w 157 156 -143 1
w 157 -156 143 1
w 157 -156 -143 0
w 158 157 144 0.437777
w 158 157 -144 0.259651
w 158 -157 144 0.703355
w 158 -157 -144 0.218778
w 159 158 145 1
w 159 158 -145 1
w 159 -158 145 1
w 159 -158 -145 0
w 160 159 146 0.50963
w 160 159 -146 0.428198
w 160 -159 146 0.104367
w 160 -159 -146 0.372417
w 161 160 147 0
w 161 160 -147 0
w 161 -160 147 1
w 161 -160 -147 0
w 162 161 148 0
w 162 161 -148 1
w 162 -161 148 0
w 162 -161 -148 1
w 163 162 149 0
w 163 162 -149 0
w 163 -162 149 0
w 163 -162 -149 1
w 164 163 150 0.10036
w 164 163 -150 0.957945
w 164 -163 150 0.625077
w 164 -163 -150 0.319138
w 165 164 151 0
w 165 164 -151 1
w 165 -164 151 0
w 165 -164 -151 1
w 166 165 152 0.952796
w 166 165 -152 0.763508
w 166 -165 152 0.188632
w 166 -165 -152 0.0571636
w 167 166 153 0
w 167 166 -153 1
w 167 -166 153 0
w 167 -166 -153 1
w 168 167 154 0.486786
w 168 167 -154 0.0613824
w 168 -167 154 0.615841
w 168 -167 -154 0.141582
w 169 155 0.850749
w 169 -155 0.748131
w 170 169 156 1
w 170 169 -156 1
w 170 -169 156 0
w 170 -169 -156 1
w 171 170 157 1
w 171 170 -157 1
w 171 -170 157 0
w 171 -170 -157 1
w 172 171 158 0
w 172 171 -158 0
w 172 -171 158 0
w 172 -171 -158 1
w 173 172 159 1
w 173 172 -159 0
w 173 -172 159 1
w 173 -172 -159 1
w 174 173 160 1
w 174 173 -160 0
w 174 -173 160 1
w 174 -173 -160 1
w 175 174 161 0
w 175 174 -161 1
w 175 -174 161 1
w 175 -174 -161 1
w 176 175 162 0.111342
w 176 175 -162 0.814378
w 176 -175 162 0.375849
w 176 -175 -162 0.133775
w 177 176 163 0
w 177 176 -163 0
w 177 -176 163 1
w 177 -176 -163 0
w 178 177 164 0.771729
w 178 177 -164 0.33553
w 178 -177 164 0.0779018
w 178 -177 -164 0.300676
w 179 178 165 0.505252
w 179 178 -165 0.886786
w 179 -178 165 0.806594
w 179 -178 -165 0.270393
w 180 179 166 1
w 180 179 -166 0
w 180 -179 166 0
w 180 -179 -166 0
w 181 180 167 0
w 181 180 -167 1
w 181 -180 167 1
w 181 -180 -167 1
w 182 181 168 0.619147
w 182 181 -168 0.507555
w 182 -181 168 0.885795
w 182 -181 -168 0.752922
w 183 169 0.666013
w 183 -169 0.534207
w 184 183 170 0
w 184 183 -170 1
w 184 -183 170 0
w 184 -183 -170 0
w 185 184 171 0.213608
w 185 184 -171 0.933997
w 185 -184 171 0.304304
w 185 -184 -171 0.71886
w 186 185 172 0.110898
w 186 185 -172 0.989253
w 186 -185 172 0.928162
w 186 -185 -172 0.470417
w 187 186 173 0
w 187 186 -173 0
w 187 -186 173 0
w 187 -186 -173 1
w 188 187 174 0
w 188 187 -174 0
w 188 -187 174 1
w 188 -187 -174 0
w 189 188 175 1
w 189 188 -175 1
w 189 -188 175 0
w 189 -188 -175 1
w 190 189 176 0.373517
w 190 189 -176 0.719275
w 190 -189 176 0.830711
w 190 -189 -176 0.0068379
w 191 190 177 0.0443192
w 191 190 -177 0.940835
w 191 -190 177 0.824783
w 191 -190 -177 0.763179
w 192 191 178 0.935681
w 192 191 -178 0.752432
w 192 -191 178 0.68978
w 192 -191 -178 0.406098
w 193 192 179 1
w 193 192 -179 1
w 193 -192 179 1
w 193 -192 -179 0
w 194 193 180 0.281619
w 194 193 -180 0.777208
w 194 -193 180 0.686031
w 194 -193 -180 0.24809
w 195 194 181 1
w 195 194 -181 0
w 195 -194 181 1
w 195 -194 -181 0
w 196 195 182 0
w 196 195 -182 1
w 196 -195 182 0
w 196 -195 -182 0